\ Model beckFiala
\ LP format - for model browsing. Use MPS format to capture full model detail.
Maximize
  + 19 Constant + [ 2 x1 ^2 + 2 x2 ^2 + 2 x9 ^2 + 2 x19 ^2 ] / 2 
Subject To
Bounds
 -100 <= x1 <= 100
 -100 <= x2 <= 100
 -100 <= x9 <= 100
 -100 <= x19 <= 100
 Constant = 1
End
